p cnf 19 40
a 2 6 0
e 1 3 4 5 7 8 9 10 11 12 13 14 15 16 17 18 19 0
-4 2 0
-4 -3 0
-2 3 4 0
5 -1 0
5 -4 0
1 4 -5 0
-7 6 0
-7 -1 0
-6 1 7 0
-7 8 -9 0
7 -8 -9 0
-7 -8 9 0
7 8 9 0
11 -10 0
11 -2 0
10 2 -11 0
-13 12 0
-13 8 0
-12 -8 13 0
15 14 0
15 4 0
-14 -4 -15 0
-16 13 0
-16 15 0
-13 -15 16 0
11 -16 -17 0
-11 16 -17 0
11 16 17 0
-11 -16 17 0
18 -9 0
18 17 0
9 -17 -18 0
-19 -5 0
-19 18 0
5 -18 19 0
-11 4 1 -12 -10 0
-7 -5 12 -14 13 4 2 11 0
6 1 -2 -11 9 16 4 0
-11 7 -17 -19 0
19 0
